num_offers = 35;
num_halls = 10;
start=[54,9,34,36,6,31,22,33,20,15,2,11,21,79,20,26,31,89,63,47,15,94,2,71,18,9,67,13,55,75,18,74,24,8,34];
end=[86,41,51,80,85,55,94,54,69,91,5,14,65,85,66,78,96,99,87,60,19,98,46,78,81,16,90,80,65,79,84,86,73,57,69];
price=[2922,1313,1285,505,7294,2298,4051,1033,2672,1333,94,377,2920,219,1694,1029,1193,199,597,1083,435,271,2135,758,4354,580,1311,1316,658,381,813,850,1973,1791,3209];
requirement=[632,682,892,980,384,499,916,658,483,583,401,693,814,694,454,399,847,394,939,534,718,359,530,748,469,873,999,796,381,835,310,770,745,216,354];
capacity=[834,901,601,743,375,277,227,814,825,853];
